
Gurobi 10.0.1 (linux64) logging started Mon Apr  7 10:49:37 2025

Set parameter LogFile to value "Results/OneScenarioExperiments/option3_with_equality_constraints_non_market_storage_forbidden_v2.log"
Set parameter TimeLimit to value 84600
Gurobi Optimizer version 10.0.1 build v10.0.1rc0 (linux64)

CPU model: AMD EPYC 9654 96-Core Processor, instruction set [SSE2|AVX|AVX2|AVX512]
Thread count: 192 physical cores, 192 logical processors, using up to 32 threads

Academic license 656792 - for non-commercial use only - registered to b.___@student.vu.nl
Optimize a model with 1703600 rows, 1948128 columns and 7223504 nonzeros
Model fingerprint: 0x0130aef1
Coefficient statistics:
  Matrix range     [2e-01, 1e+00]
  Objective range  [6e-05, 2e+01]
  Bounds range     [0e+00, 0e+00]
  RHS range        [1e-02, 1e+03]
Presolve removed 1462602 rows and 1548265 columns
Presolve time: 4.33s
Presolved: 240998 rows, 399890 columns, 1511400 nonzeros

Concurrent LP optimizer: primal simplex, dual simplex, and barrier
Showing barrier log only...

Ordering time: 1.64s

Barrier statistics:
 AA' NZ     : 1.945e+06
 Factor NZ  : 2.160e+07 (roughly 240 MB of memory)
 Factor Ops : 1.926e+10 (less than 1 second per iteration)
 Threads    : 30

                  Objective                Residual
Iter       Primal          Dual         Primal    Dual     Compl     Time
   0  -7.14473387e+05  1.40689454e+09  7.82e+03 5.01e+02  2.27e+05     7s
   1  -3.40451571e+07  1.08800348e+09  1.98e+03 7.55e+01  5.04e+04     7s
   2  -3.56276502e+07  4.74459516e+08  4.78e+02 4.80e+00  9.27e+03     7s
   3  -2.00984132e+07  1.06247035e+08  7.03e+01 3.16e-01  1.46e+03     7s
   4  -5.92568399e+06  4.00216763e+07  1.35e+01 8.45e-02  3.82e+02     7s
   5  -2.21329617e+06  1.77204855e+07  3.70e+00 3.33e-02  1.41e+02     7s
   6  -7.67414963e+05  4.34641279e+06  1.08e+00 6.71e-03  3.38e+01     7s
   7  -2.08550552e+05  7.11804960e+05  2.31e-01 8.41e-04  5.79e+00     7s
   8  -3.65839752e+04  1.18371783e+05  3.83e-02 1.03e-04  9.40e-01     8s
   9   4.68210531e+03  6.22150085e+04  7.27e-03 4.30e-05  3.27e-01     8s
  10   1.12095727e+04  3.94753421e+04  3.93e-03 1.94e-05  1.61e-01     8s
  11   1.72167756e+04  2.79187229e+04  1.35e-03 7.35e-06  6.03e-02     8s
  12   1.89132627e+04  2.49530505e+04  7.47e-04 4.03e-06  3.39e-02     8s
  13   2.02459933e+04  2.35754295e+04  3.30e-04 2.45e-06  1.84e-02     8s
  14   2.10361500e+04  2.21506824e+04  1.04e-04 7.03e-07  6.16e-03     8s
  15   2.12313645e+04  2.17702390e+04  5.87e-05 2.83e-07  3.01e-03     8s
  16   2.13336093e+04  2.16397580e+04  3.70e-05 1.36e-07  1.72e-03     8s
  17   2.14265591e+04  2.15774268e+04  1.78e-05 6.51e-08  8.47e-04     8s
  18   2.14919299e+04  2.15474470e+04  4.75e-06 3.17e-08  3.06e-04     8s
  19   2.15044890e+04  2.15326684e+04  2.42e-06 1.49e-08  1.56e-04     8s
  20   2.15144026e+04  2.15234405e+04  6.91e-07 4.28e-09  4.97e-05     9s
  21   2.15180674e+04  2.15205010e+04  1.34e-07 1.21e-09  1.32e-05     9s
  22   2.15186913e+04  2.15197673e+04  6.03e-08 5.09e-10  5.85e-06     9s
  23   2.15188295e+04  2.15195556e+04  4.45e-08 3.07e-10  3.97e-06     9s
  24   2.15189934e+04  2.15193546e+04  2.60e-08 1.16e-10  1.99e-06     9s
  25   2.15191315e+04  2.15193051e+04  1.04e-08 6.86e-11  9.49e-07     9s
  26   2.15191941e+04  2.15192528e+04  3.55e-09 2.06e-11  3.22e-07     9s
  27   2.15192105e+04  2.15192416e+04  1.86e-09 1.10e-11  1.70e-07     9s
  28   2.15192190e+04  2.15192322e+04  9.71e-10 3.08e-12  7.30e-08     9s
  29   2.15192217e+04  2.15192306e+04  9.20e-10 1.78e-12  4.91e-08     9s
  30   2.15192262e+04  2.15192286e+04  2.41e-09 2.24e-12  1.36e-08     9s
  31   2.15192276e+04  2.15192285e+04  1.19e-06 2.79e-12  4.85e-09    10s
  32   2.15192284e+04  2.15192284e+04  7.84e-08 2.52e-12  3.01e-10    10s

Barrier solved model in 32 iterations and 9.62 seconds (10.23 work units)
Optimal objective 2.15192284e+04

Crossover log...

   36867 DPushes remaining with DInf 6.2053546e-04                10s
       0 DPushes remaining with DInf 0.0000000e+00                10s

   16834 PPushes remaining with PInf 3.7315046e-05                10s
       0 PPushes remaining with PInf 0.0000000e+00                10s

  Push phase complete: Pinf 0.0000000e+00, Dinf 1.4871875e-01     10s

Iteration    Objective       Primal Inf.    Dual Inf.      Time
   47653    2.1519228e+04   0.000000e+00   1.487188e-01     10s

Solved with barrier
Extra simplex iterations after uncrush: 3
   48503    2.1519228e+04   0.000000e+00   0.000000e+00     11s

Use crossover to convert LP symmetric solution to basic solution...
Crossover log...

    2938 DPushes remaining with DInf 0.0000000e+00                11s
       0 DPushes remaining with DInf 0.0000000e+00                11s

    4817 PPushes remaining with PInf 0.0000000e+00                11s
       0 PPushes remaining with PInf 0.0000000e+00                11s

  Push phase complete: Pinf 0.0000000e+00, Dinf 4.0819224e-12     11s

Iteration    Objective       Primal Inf.    Dual Inf.      Time
   65174    2.1519619e+04   0.000000e+00   1.272617e+07     16s
   69364    2.1519776e+04   0.000000e+00   3.048621e+06     21s
   72857    2.1519833e+04   0.000000e+00   7.762725e+06     26s
   75648    2.1519857e+04   0.000000e+00   1.934220e+07     31s
   78907    2.1519873e+04   0.000000e+00   6.512146e+06     36s
   81176    2.1519883e+04   0.000000e+00   6.035658e+06     40s
   83426    2.1519894e+04   0.000000e+00   2.459781e+06     47s
   84700    2.1519904e+04   0.000000e+00   4.343391e+06     52s
   85974    2.1519912e+04   0.000000e+00   5.207645e+06     57s
   87248    2.1519927e+04   0.000000e+00   9.552007e+06     63s
   87893    2.1519931e+04   0.000000e+00   5.186397e+05     65s
   89167    2.1519940e+04   0.000000e+00   7.464381e+06     71s
   90441    2.1519947e+04   0.000000e+00   2.295673e+06     77s
   91078    2.1519950e+04   0.000000e+00   4.236684e+06     80s
   92352    2.1519957e+04   0.000000e+00   1.220134e+07     87s
   92989    2.1519961e+04   0.000000e+00   4.318749e+06     91s
   93626    2.1519968e+04   0.000000e+00   2.582594e+06     95s
   94900    2.1519976e+04   0.000000e+00   3.878509e+05    103s
   95537    2.1519978e+04   0.000000e+00   1.545050e+05    107s
   96811    2.1519983e+04   0.000000e+00   7.741855e+06    114s
   97448    2.1519984e+04   0.000000e+00   4.264314e+04    117s
   98085    2.1519985e+04   0.000000e+00   8.046092e+04    121s
   99359    2.1519990e+04   0.000000e+00   1.050502e+05    127s
   99996    2.1519995e+04   0.000000e+00   5.375155e+04    131s
  101270    2.1520002e+04   0.000000e+00   2.556701e+06    139s
  101907    2.1520007e+04   0.000000e+00   6.714788e+05    142s
  102544    2.1520009e+04   0.000000e+00   4.569200e+06    146s
  103181    2.1520012e+04   0.000000e+00   1.176123e+07    150s
  104455    2.1520017e+04   0.000000e+00   5.198700e+04    158s
  105092    2.1520020e+04   0.000000e+00   6.684596e+06    161s
  106366    2.1520027e+04   0.000000e+00   1.998303e+05    168s
  107003    2.1520030e+04   0.000000e+00   4.554742e+06    172s
  107640    2.1520032e+04   0.000000e+00   6.361912e+05    176s
  108277    2.1520034e+04   0.000000e+00   1.190624e+05    181s
  109551    2.1520040e+04   0.000000e+00   3.175067e+06    189s
  110188    2.1520042e+04   0.000000e+00   1.845046e+06    193s
  110825    2.1520044e+04   0.000000e+00   1.131001e+05    197s
  111462    2.1520046e+04   0.000000e+00   3.156699e+04    201s
  112099    2.1520047e+04   0.000000e+00   2.484042e+06    206s
  113373    2.1520050e+04   0.000000e+00   2.641562e+04    214s
  114010    2.1520051e+04   0.000000e+00   9.074674e+06    219s
  114647    2.1520056e+04   0.000000e+00   3.043224e+06    224s
  115284    2.1520057e+04   0.000000e+00   1.883397e+05    230s
  115921    2.1520057e+04   0.000000e+00   2.100576e+04    235s
  116558    2.1520058e+04   0.000000e+00   5.382739e+04    240s
  117195    2.1520058e+04   0.000000e+00   1.896732e+04    244s
  117832    2.1520058e+04   0.000000e+00   3.290538e+04    248s
  118469    2.1520059e+04   0.000000e+00   1.601725e+05    252s
  119106    2.1520059e+04   0.000000e+00   3.610418e+04    256s
  120380    2.1520060e+04   0.000000e+00   4.897875e+04    265s
  121017    2.1520060e+04   0.000000e+00   2.858983e+04    269s
  121654    2.1520060e+04   0.000000e+00   2.857103e+04    274s
  122291    2.1520060e+04   0.000000e+00   8.821065e+04    280s
  122928    2.1520061e+04   0.000000e+00   1.907333e+04    284s
  123565    2.1520061e+04   0.000000e+00   7.817184e+04    288s
  124202    2.1520061e+04   0.000000e+00   3.653553e+04    293s
  124839    2.1520061e+04   0.000000e+00   1.400342e+04    298s
  125476    2.1520062e+04   0.000000e+00   2.280631e+05    302s
  126113    2.1520062e+04   0.000000e+00   2.700194e+04    306s
  126750    2.1520062e+04   0.000000e+00   1.049467e+05    311s
  128024    2.1520062e+04   0.000000e+00   6.402114e+03    319s
  128661    2.1520063e+04   0.000000e+00   1.590963e+04    324s
  129298    2.1520063e+04   0.000000e+00   2.570237e+04    329s
  129935    2.1520063e+04   0.000000e+00   4.875390e+04    333s
  130572    2.1520063e+04   0.000000e+00   3.879741e+04    337s
  131209    2.1520063e+04   0.000000e+00   2.148062e+04    341s
  131846    2.1520063e+04   0.000000e+00   7.679060e+03    345s
  132483    2.1520063e+04   0.000000e+00   1.038088e+05    351s
  133120    2.1520064e+04   0.000000e+00   3.648166e+04    357s
  133757    2.1520064e+04   0.000000e+00   3.406825e+04    362s
  134394    2.1520064e+04   0.000000e+00   4.677576e+04    366s
  135031    2.1520064e+04   0.000000e+00   9.111123e+03    371s
  135668    2.1520064e+04   0.000000e+00   5.459913e+03    375s
  136942    2.1520065e+04   0.000000e+00   1.690716e+04    383s
  137579    2.1520065e+04   0.000000e+00   1.216436e+04    387s
  138216    2.1520065e+04   0.000000e+00   1.595708e+04    391s
  138853    2.1520065e+04   0.000000e+00   1.522970e+04    396s
  139490    2.1520065e+04   0.000000e+00   1.119151e+04    402s
  140127    2.1520065e+04   0.000000e+00   3.166098e+03    407s
  140764    2.1520065e+04   0.000000e+00   4.532180e+04    412s
  141401    2.1520065e+04   0.000000e+00   2.146197e+04    416s
  142038    2.1520065e+04   0.000000e+00   9.668001e+03    422s
  142675    2.1520066e+04   0.000000e+00   2.004223e+04    427s
  143312    2.1520066e+04   0.000000e+00   6.909177e+03    432s
  143949    2.1520066e+04   0.000000e+00   1.047476e+04    437s
  144586    2.1520066e+04   0.000000e+00   7.070814e+04    443s
  145223    2.1520066e+04   0.000000e+00   3.538856e+03    448s
  145860    2.1520066e+04   0.000000e+00   2.158845e+04    453s
  146497    2.1520066e+04   0.000000e+00   2.472738e+03    459s
  147134    2.1520066e+04   0.000000e+00   1.876611e+04    466s
  147771    2.1520066e+04   0.000000e+00   4.228968e+03    471s
  148408    2.1520066e+04   0.000000e+00   2.808687e+04    476s
  149045    2.1520066e+04   0.000000e+00   4.781990e+03    481s
  149682    2.1520066e+04   0.000000e+00   3.136090e+04    487s
  150319    2.1520066e+04   0.000000e+00   9.670149e+03    491s
  150956    2.1520067e+04   0.000000e+00   6.558143e+03    497s
  151593    2.1520067e+04   0.000000e+00   2.620954e+04    502s
  152230    2.1520067e+04   0.000000e+00   2.168759e+03    508s
  152867    2.1520067e+04   0.000000e+00   1.405196e+04    513s
  153504    2.1520067e+04   0.000000e+00   2.384321e+03    520s
  154141    2.1520067e+04   0.000000e+00   1.838019e+04    524s
  154778    2.1520067e+04   0.000000e+00   3.879661e+03    529s
  155415    2.1520067e+04   0.000000e+00   1.687472e+04    533s
  156052    2.1520067e+04   0.000000e+00   6.410601e+05    538s
  156575    2.1520067e+04   0.000000e+00   7.211054e+03    542s
  157212    2.1520067e+04   0.000000e+00   1.702693e+03    547s
  157849    2.1520067e+04   0.000000e+00   2.445903e+03    553s
  158486    2.1520067e+04   0.000000e+00   3.282607e+03    558s
  159123    2.1520067e+04   0.000000e+00   3.553827e+04    564s
  159760    2.1520067e+04   0.000000e+00   5.318746e+03    570s
  160397    2.1520067e+04   0.000000e+00   2.070445e+03    575s
  161671    2.1520067e+04   0.000000e+00   1.165936e+04    585s
  162308    2.1520067e+04   0.000000e+00   1.093417e+03    591s
  162945    2.1520067e+04   0.000000e+00   2.197167e+03    598s
  163582    2.1520067e+04   0.000000e+00   2.717592e+03    604s
  164219    2.1520067e+04   0.000000e+00   1.515376e+03    609s
  164856    2.1520067e+04   0.000000e+00   5.962928e+03    615s
  165493    2.1520068e+04   0.000000e+00   1.157498e+03    621s
  166130    2.1520068e+04   0.000000e+00   8.394050e+02    627s
  166767    2.1520068e+04   0.000000e+00   9.001538e+03    633s
  167404    2.1520068e+04   0.000000e+00   2.461249e+03    639s
  168041    2.1520068e+04   0.000000e+00   2.445469e+03    645s
  168678    2.1520068e+04   0.000000e+00   6.735637e+03    651s
  169315    2.1520068e+04   0.000000e+00   1.640452e+03    657s
  169952    2.1520068e+04   0.000000e+00   1.305731e+03    664s
  170582    2.1520068e+04   0.000000e+00   1.360848e+03    671s
  171219    2.1520068e+04   0.000000e+00   1.035229e+03    677s
  171856    2.1520068e+04   0.000000e+00   8.003777e+02    683s
  172493    2.1520068e+04   0.000000e+00   1.452393e+03    691s
  173103    2.1520068e+04   0.000000e+00   4.337351e+02    697s
  173723    2.1520068e+04   0.000000e+00   8.572620e+02    704s
  174360    2.1520068e+04   0.000000e+00   7.000401e+02    711s
  174997    2.1520068e+04   0.000000e+00   1.299839e+03    716s
  175634    2.1520068e+04   0.000000e+00   4.309240e+02    723s
  176271    2.1520068e+04   0.000000e+00   1.176538e+03    729s
  176871    2.1520068e+04   0.000000e+00   2.324997e+02    736s
  177508    2.1520068e+04   0.000000e+00   7.156842e+02    742s
  178145    2.1520068e+04   0.000000e+00   3.480057e+02    748s
  178782    2.1520068e+04   0.000000e+00   6.731349e+02    753s
  179419    2.1520068e+04   0.000000e+00   1.344261e+02    757s
  180056    2.1520068e+04   0.000000e+00   2.396367e+02    762s
  180693    2.1520068e+04   0.000000e+00   5.383364e+01    767s
  181330    2.1520068e+04   0.000000e+00   7.206467e+01    770s
  182604    2.1520068e+04   0.000000e+00   1.081088e+01    777s
  183241    2.1520068e+04   0.000000e+00   1.069760e+02    780s
  184515    2.1520068e+04   0.000000e+00   2.768750e-01    787s
  185152    2.1520068e+04   0.000000e+00   5.161875e-01    791s
Extra simplex iterations after uncrush: 129201
  185439    2.1519228e+04   0.000000e+00   0.000000e+00    793s

Solved in 185439 iterations and 793.30 seconds (972.69 work units)
Optimal objective  2.151922844e+04
